42327 37189 
40773 39011 
41616 38033 
41762 37905 
41924 37769 
41433 38279 
41928 37686 
42435 36997 
42468 36969 
42400 37014 
42041 37586 
41064 38695 
42395 37033 
42756 36472 
42866 36273 
42493 36910 
42610 36727 
42918 36127 
42720 36528 
42211 37228 
43013 35892 
42678 36575 
42534 36732 
42134 37482 
43115 35609 
42959 35949 
43231 35477 
42202 37330 
41789 37791 
41341 38572 
41410 38428 
41540 38147 
40534 39255 
40459 39374 
40372 39406 
40771 39027 
41100 38653 
40983 38836 
41573 38119 
40269 39435 
39750 39811 
40492 39346 
40881 38896 
40123 39762 
40581 39088 
41516 38247 
40631 39033 
40302 39407 
39560 39872 
39783 39783 
41060 38740 
41025 38757 
39593 39844 
41129 38596 
41701 38019 
38792 40171 
39111 40109 
38591 40195 
38910 40133 
38936 40111 
38982 40110 
39327 40026 
39322 40089 
39391 39945 
39334 40020 
39447 39933 
